NAME: n20q30I.tsp, 20 nodes, semilla 888
COMMENT: Problema aleatorio de norma euclidea
DIMENSION: 20
CAPACITY: 30
EDGE_WEIGHT_TYPE: EUC_2D
NODE_COORD_SECTION
1   0.0000   0.0000
2 317.0000 439.0000
3 424.0000 411.0000
4 -174.0000 426.0000
5  38.0000 211.0000
6 117.0000 -53.0000
7 179.0000  85.0000
8 -145.0000 -67.0000
9 -314.0000 342.0000
10 385.0000 487.0000
11 -128.0000 -456.0000
12 -95.0000 133.0000
13 449.0000 -253.0000
14 389.0000 271.0000
15 -379.0000 468.0000
16  13.0000 -151.0000
17 223.0000 -422.0000
18 356.0000 -437.0000
19 309.0000  78.0000
20 103.0000 -391.0000
DISPLAY_DATA_SECTION:
 1  250  250
 2  408  469
 3  462  455
 4  163  463
 5  269  355
 6  308  223
 7  339  292
 8  177  216
 9   93  421
10  442  493
11  186   22
12  202  316
13  474  123
14  444  385
15   60  484
16  256  174
17  361   39
18  428   31
19  404  289
20  301   54
DEMAND_SECTION
1 5
2 5
3 8
4 2
5 5
6 5
7 -6
8 -8
9 -10
10 0
11 3
12 -10
13 1
14 -6
15 7
16 -1
17 5
18 -9
19 5
20 -1
EOF